RT is False
Default write of storage_offers_DA.csv just to have a file (but constraint should be inactive)
Reading model...
...model read.
creating competitive generators file...
...competitive generators recorded.
Loading data...
.. day-ahead data read.
Compiling instance...
...instance created.
Creating Offer Mitigation (model will solve as dispatch if TRUE)...
NOTE: storage offers will not be mitigated
...storage offer mitigation file created
Converting model to MPEC...
...converted
NOTE: initial MIP solve with only storage competitive to get feasible solution
Solving...

Welcome to IBM(R) ILOG(R) CPLEX(R) Interactive Optimizer 12.9.0.0
  with Simplex, Mixed Integer & Barrier Optimizers
5725-A06 5725-A29 5724-Y48 5724-Y49 5724-Y54 5724-Y55 5655-Y21
Copyright IBM Corp. 1988, 2019.  All Rights Reserved.

Type 'help' for a list of available commands.
Type 'help' followed by a command name for more
information on commands.

CPLEX> Logfile 'cplex.log' closed.
Logfile 'C:\Users\Luke\Desktop\test919\logs\tmpu2658nel.cplex.log' open.
CPLEX> New value for parallel optimization mode: -1
CPLEX> New value for mixed integer optimality gap tolerance: 0.01
CPLEX> New value for integrality tolerance: 1e-09
CPLEX> New value for feasibility tolerance: 0.01
CPLEX> New value for deterministic time limit in ticks: 75000
CPLEX> Problem 'C:\Users\Luke\Desktop\test919\logs\tmpqx8hacm4.pyomo.lp' read.
Read time = 0.20 sec. (14.73 ticks)
CPLEX> Problem name         : C:\Users\Luke\Desktop\test919\logs\tmpqx8hacm4.pyomo.lp
Objective sense      : Maximize
Variables            :   53805  [Nneg: 1,  Box: 22000,  Free: 4464,
                                 Binary: 27340]
Objective nonzeros   :    9129
Linear constraints   :  123205  [Less: 41346,  Greater: 59096,  Equal: 22763]
  Nonzeros           :  291853
  RHS nonzeros       :   67591

Variables            : Min LB: -5000.000        Max UB: 1000000.       
Objective nonzeros   : Min   : 0.1000000        Max   : 2500.000       
Linear constraints   :
  Nonzeros           : Min   : 0.1000000        Max   : 1000000.       
  RHS nonzeros       : Min   : 0.1000000        Max   : 1000000.       
CPLEX> CPXPARAM_Parallel                                -1
CPXPARAM_Simplex_Tolerances_Feasibility          0.01
CPXPARAM_DetTimeLimit                            75000
CPXPARAM_MIP_Tolerances_MIPGap                   0.01
CPXPARAM_MIP_Tolerances_Integrality              1.0000000000000001e-09
Tried aggregator 3 times.
MIP Presolve eliminated 88110 rows and 18512 columns.
MIP Presolve added 3479 rows and 0 columns.
MIP Presolve modified 25060 coefficients.
Aggregator did 13004 substitutions.
Reduced MIP has 25570 rows, 21811 columns, and 72732 nonzeros.
Reduced MIP has 8631 binaries, 0 generals, 0 SOSs, and 0 indicators.
Presolve time = 0.23 sec. (174.02 ticks)
Probing fixed 376 vars, tightened 2926 bounds.
Probing time = 1.59 sec. (893.02 ticks)
Tried aggregator 2 times.
MIP Presolve eliminated 850 rows and 754 columns.
MIP Presolve modified 2313 coefficients.
Aggregator did 40 substitutions.
Reduced MIP has 24680 rows, 21017 columns, and 70148 nonzeros.
Reduced MIP has 8255 binaries, 0 generals, 0 SOSs, and 0 indicators.
Presolve time = 0.11 sec. (74.65 ticks)
Probing time = 0.02 sec. (16.10 ticks)
Clique table members: 6509.
MIP emphasis: balance optimality and feasibility.
MIP search method: dynamic search.
Parallel mode: opportunistic, using up to 24 threads.
Root relaxation solution time = 0.56 sec. (610.00 ticks)

        Nodes                                         Cuts/
   Node  Left     Objective  IInf  Best Integer    Best Bound    ItCnt     Gap

      0     0     3942.3366   678                   3942.3366     7566         
      0     0     3940.9761     2                     Cuts: 5     7568         
      0     0     3940.9761     2                 Flowcuts: 1     7569         
      0    14    infeasible                       Impl Bds: 1     7651         
Elapsed time = 7.64 sec. (4689.48 ticks, tree = 0.02 MB, solutions = 2)
*     2+   12                         3409.4843     3809.7371            11.74%
*    41    16      integral     0     3783.6927     3809.7371     7685    0.69%

Implied bound cuts applied:  1
Flow cuts applied:  1
Gomory fractional cuts applied:  1

Root node processing (before b&c):
  Real time             =    7.19 sec. (4671.01 ticks)
Parallel b&c, 24 threads:
  Real time             =    0.77 sec. (216.47 ticks)
  Sync time (average)   =    0.19 sec.
  Wait time (average)   =    0.00 sec.
                          ------------
Total (root+branch&cut) =    7.95 sec. (4887.48 ticks)

Solution pool: 2 solutions saved.

MIP - Integer optimal, tolerance (0.01/1e-06):  Objective =  3.7836927492e+03
Current MIP best bound =  3.8097371232e+03 (gap = 26.0444, 0.69%)
Solution time =    7.97 sec.  Iterations = 7802  Nodes = 66 (2)
Deterministic time = 4887.63 ticks  (613.41 ticks/sec)

CPLEX> Incumbent solution written to file 'C:\Users\Luke\Desktop\test919\logs\tmprwm6hb8n.cplex.sol'.
CPLEX> NOTE: no warmstart specified for MIP iteration, default behavior is true
NOTE: resolving with all competitive generators using storage-only solution to warmstart
Solving...

Welcome to IBM(R) ILOG(R) CPLEX(R) Interactive Optimizer 12.9.0.0
  with Simplex, Mixed Integer & Barrier Optimizers
5725-A06 5725-A29 5724-Y48 5724-Y49 5724-Y54 5724-Y55 5655-Y21
Copyright IBM Corp. 1988, 2019.  All Rights Reserved.

Type 'help' for a list of available commands.
Type 'help' followed by a command name for more
information on commands.

CPLEX> Logfile 'cplex.log' closed.
Logfile 'C:\Users\Luke\Desktop\test919\logs\tmpzft97s36.cplex.log' open.
CPLEX> New value for parallel optimization mode: -1
CPLEX> New value for mixed integer optimality gap tolerance: 0.01
CPLEX> New value for integrality tolerance: 1e-09
CPLEX> New value for feasibility tolerance: 0.01
CPLEX> New value for deterministic time limit in ticks: 75000
CPLEX> Problem 'C:\Users\Luke\Desktop\test919\logs\tmpdb8twa4h.pyomo.lp' read.
Read time = 0.19 sec. (14.75 ticks)
CPLEX> MIP start file 'C:\Users\Luke\Desktop\test919\logs\tmp36gmo0ye.cplex.mst' read.
CPLEX> Problem name         : C:\Users\Luke\Desktop\test919\logs\tmpdb8twa4h.pyomo.lp
Objective sense      : Maximize
Variables            :   54525  [Nneg: 1,  Box: 22720,  Free: 4464,
                                 Binary: 27340]
Objective nonzeros   :    9849
Linear constraints   :  123205  [Less: 41346,  Greater: 59096,  Equal: 22763]
  Nonzeros           :  291853
  RHS nonzeros       :   67591

Variables            : Min LB: -5000.000        Max UB: 1000000.       
Objective nonzeros   : Min   : 0.1000000        Max   : 2500.000       
Linear constraints   :
  Nonzeros           : Min   : 0.1000000        Max   : 1000000.       
  RHS nonzeros       : Min   : 0.1000000        Max   : 1000000.       
CPLEX> CPXPARAM_Parallel                                -1
CPXPARAM_Simplex_Tolerances_Feasibility          0.01
CPXPARAM_DetTimeLimit                            75000
CPXPARAM_MIP_Tolerances_MIPGap                   0.01
CPXPARAM_MIP_Tolerances_Integrality              1.0000000000000001e-09
Warning:  No solution found from 1 MIP starts.
Retaining values of one MIP start for possible repair.
Tried aggregator 3 times.
MIP Presolve eliminated 88110 rows and 19232 columns.
MIP Presolve added 3479 rows and 0 columns.
MIP Presolve modified 25060 coefficients.
Aggregator did 13004 substitutions.
Reduced MIP has 25570 rows, 21811 columns, and 72732 nonzeros.
Reduced MIP has 8631 binaries, 0 generals, 0 SOSs, and 0 indicators.
Presolve time = 0.23 sec. (174.38 ticks)
Probing fixed 376 vars, tightened 2926 bounds.
Probing time = 1.53 sec. (893.02 ticks)
Tried aggregator 2 times.
MIP Presolve eliminated 850 rows and 754 columns.
MIP Presolve modified 2313 coefficients.
Aggregator did 40 substitutions.
Reduced MIP has 24680 rows, 21017 columns, and 70148 nonzeros.
Reduced MIP has 8255 binaries, 0 generals, 0 SOSs, and 0 indicators.
Presolve time = 0.09 sec. (74.65 ticks)
Probing time = 0.03 sec. (16.10 ticks)
Clique table members: 6509.
MIP emphasis: balance optimality and feasibility.
MIP search method: dynamic search.
Parallel mode: opportunistic, using up to 24 threads.
Root relaxation solution time = 0.55 sec. (610.00 ticks)

        Nodes                                         Cuts/
   Node  Left     Objective  IInf  Best Integer    Best Bound    ItCnt     Gap

      0     0     3942.3366   678                   3942.3366     7566         
      0     0     3940.9761     2                     Cuts: 5     7568         
      0     0     3940.9761     2                 Flowcuts: 1     7569         
Repair heuristic found nothing.
      0    10    infeasible                       Impl Bds: 1     7627         
Elapsed time = 8.02 sec. (4763.37 ticks, tree = 0.02 MB, solutions = 3)
*     5    16      integral     0     3409.4843     3853.4834     7762   13.02%
*    45    17      integral     0     3783.6927     3809.7371     7790    0.69%

Cover cuts applied:  1
Implied bound cuts applied:  1
Flow cuts applied:  1
Gomory fractional cuts applied:  1

Root node processing (before b&c):
  Real time             =    7.50 sec. (4747.95 ticks)
Parallel b&c, 24 threads:
  Real time             =    0.81 sec. (254.47 ticks)
  Sync time (average)   =    0.22 sec.
  Wait time (average)   =    0.00 sec.
                          ------------
Total (root+branch&cut) =    8.31 sec. (5002.42 ticks)

Solution pool: 3 solutions saved.

MIP - Integer optimal, tolerance (0.01/1e-06):  Objective =  3.7836927492e+03
Current MIP best bound =  3.8097371232e+03 (gap = 26.0444, 0.69%)
Solution time =    8.34 sec.  Iterations = 7871  Nodes = 62 (2)
Deterministic time = 5002.58 ticks  (599.54 ticks/sec)

CPLEX> Incumbent solution written to file 'C:\Users\Luke\Desktop\test919\logs\tmpvyucftiy.cplex.sol'.
CPLEX> Exporting results... 
